c Result of efficient AIG-to-CNF conversion using package CNF
p cnf 336 1136
-2 302 3 243 0
-2 3 225 243 0
2 -243 0
2 -3 0
2 -302 -225 0
-3 300 4 0
-3 4 192 197 0
-3 4 -192 -197 0
3 -4 0
3 -300 192 -197 0
3 -300 -192 197 0
4 -303 5 160 -162 0
-4 -160 0
-4 162 0
-4 303 0
-4 -5 0
5 6 138 143 -148 0
-5 148 0
-5 -143 0
-5 -6 0
-5 -138 0
-6 7 64 105 108 0
6 -108 0
6 -7 0
6 -105 0
6 -64 0
-7 -8 0
-7 20 47 55 0
7 8 -47 0
7 8 -20 0
7 8 -55 0
-8 299 9 0
8 -299 0
8 -9 0
-9 10 16 18 19 0
9 -19 0
9 -10 0
9 -18 0
9 -16 0
-10 296 297 11 13 0
10 -296 0
10 -13 0
10 -11 0
10 -297 0
-11 288 294 295 12 0
11 -12 0
11 -295 0
11 -288 0
11 -294 0
-12 292 293 298 0
12 -292 0
12 -298 0
12 -293 0
-13 284 285 14 15 0
13 -284 0
13 -15 0
13 -14 0
13 -285 0
-14 289 290 291 0
14 -289 0
14 -291 0
14 -290 0
-15 280 281 286 287 0
15 -287 0
15 -286 0
15 -280 0
15 -281 0
-16 278 282 283 17 0
16 -17 0
16 -283 0
16 -278 0
16 -282 0
-17 276 277 0
17 -276 0
17 -277 0
-18 272 279 0
18 -272 0
18 -279 0
-19 273 274 275 0
19 -273 0
19 -275 0
19 -274 0
-20 21 34 0
20 -21 0
20 -34 0
21 300 -22 0
21 -300 -29 0
-21 -300 29 0
-21 300 22 0
22 301 -23 0
22 -301 -26 0
-22 -301 26 0
-22 301 23 0
23 302 -24 0
23 -302 -25 0
-23 -302 25 0
-23 302 24 0
24 -303 -315 0
24 303 -316 0
-24 303 316 0
-24 -303 315 0
25 -303 -313 0
25 303 -314 0
-25 303 314 0
-25 -303 313 0
26 302 -27 0
26 -302 -28 0
-26 -302 28 0
-26 302 27 0
27 -303 -311 0
27 303 -312 0
-27 303 312 0
-27 -303 311 0
28 -303 -309 0
28 303 -310 0
-28 303 310 0
-28 -303 309 0
29 301 -30 0
29 -301 -33 0
-29 -301 33 0
-29 301 30 0
30 302 -31 0
30 -302 -32 0
-30 -302 32 0
-30 302 31 0
31 -303 -307 0
31 303 -308 0
-31 303 308 0
-31 -303 307 0
32 -303 -305 0
32 303 -306 0
-32 303 306 0
-32 -303 305 0
33 302 303 -304 0
-33 304 0
-33 -303 0
-33 -302 0
34 300 -35 0
34 -300 -42 0
-34 -300 42 0
-34 300 35 0
35 301 -36 0
35 -301 -39 0
-35 -301 39 0
-35 301 36 0
36 302 -37 0
36 -302 -38 0
-36 -302 38 0
-36 302 37 0
37 -303 -316 0
37 303 -317 0
-37 303 317 0
-37 -303 316 0
38 -303 -314 0
38 303 -315 0
-38 303 315 0
-38 -303 314 0
39 302 -40 0
39 -302 -41 0
-39 -302 41 0
-39 302 40 0
40 -303 -312 0
40 303 -313 0
-40 303 313 0
-40 -303 312 0
41 -303 -310 0
41 303 -311 0
-41 303 311 0
-41 -303 310 0
42 301 -43 0
42 -301 -46 0
-42 -301 46 0
-42 301 43 0
43 302 -44 0
43 -302 -45 0
-43 -302 45 0
-43 302 44 0
44 -303 -308 0
44 303 -309 0
-44 303 309 0
-44 -303 308 0
45 -303 -306 0
45 303 -307 0
-45 303 307 0
-45 -303 306 0
46 302 303 -305 0
46 302 -303 -304 0
-46 -302 0
-46 -303 304 0
-46 303 305 0
47 300 -48 0
47 -300 -52 0
-47 -300 52 0
-47 300 48 0
48 301 -49 0
48 -301 -51 0
-48 -301 51 0
-48 301 49 0
49 -302 -24 0
49 302 -50 0
-49 302 50 0
-49 -302 24 0
50 -303 -317 0
50 303 -318 0
-50 303 318 0
-50 -303 317 0
51 302 -25 0
51 -302 -27 0
-51 -302 27 0
-51 302 25 0
52 301 -53 0
52 -301 -54 0
-52 -301 54 0
-52 301 53 0
53 302 -28 0
53 -302 -31 0
-53 -302 31 0
-53 302 28 0
54 302 -32 0
54 -302 303 -304 0
-54 -302 -303 0
-54 302 32 0
-54 -302 304 0
55 300 -56 0
55 -300 -60 0
-55 -300 60 0
-55 300 56 0
56 301 -57 0
56 -301 -59 0
-56 -301 59 0
-56 301 57 0
57 -302 -37 0
57 302 -58 0
-57 302 58 0
-57 -302 37 0
58 -303 -318 0
58 303 -319 0
-58 303 319 0
-58 -303 318 0
59 302 -38 0
59 -302 -40 0
-59 -302 40 0
-59 302 38 0
60 301 -61 0
60 -301 -62 0
-60 -301 62 0
-60 301 61 0
61 302 -41 0
61 -302 -44 0
-61 -302 44 0
-61 302 41 0
62 302 -45 0
62 -302 -63 0
-62 -302 63 0
-62 302 45 0
63 -303 -304 0
63 303 -305 0
-63 303 305 0
-63 -303 304 0
-64 65 80 -104 0
-64 65 80 103 0
64 -65 0
64 -80 0
64 -103 104 0
65 -299 9 -77 0
65 299 9 -66 0
-65 -9 0
-65 -299 77 0
-65 299 66 0
66 300 -73 0
66 -300 -67 0
66 300 -70 0
-66 -300 67 0
-66 300 70 73 0
-67 68 69 0
67 -68 0
67 -69 0
68 301 -39 0
68 -301 -43 0
-68 -301 43 0
-68 301 39 0
69 301 -51 0
69 -301 -53 0
-69 -301 53 0
-69 301 51 0
70 -301 -36 0
70 301 -71 0
-70 301 71 0
-70 -301 36 0
71 -302 -58 0
71 302 -72 0
-71 302 72 0
-71 -302 58 0
72 -303 -320 0
72 303 -321 0
-72 303 321 0
-72 -303 320 0
73 -301 -49 0
73 301 -74 0
-73 301 74 0
-73 -301 49 0
74 302 -75 0
74 -302 -76 0
-74 -302 76 0
-74 302 75 0
75 -303 -321 0
75 303 -322 0
-75 303 322 0
-75 -303 321 0
76 -303 -319 0
76 303 -320 0
-76 303 320 0
-76 -303 319 0
77 300 -78 0
77 300 -79 0
-77 -300 0
-77 78 79 0
78 301 -54 0
-78 -301 0
-78 54 0
79 301 -46 0
-79 -301 0
-79 46 0
80 -299 9 -99 0
80 299 9 -81 0
-80 -9 0
-80 -299 99 0
-80 299 81 0
81 -86 96 0
81 -300 96 0
81 -82 96 0
-81 -96 0
-81 300 82 86 0
82 -301 -74 0
82 301 -83 0
-82 301 83 0
-82 -301 74 0
83 302 -84 0
83 -302 -85 0
-83 -302 85 0
-83 302 84 0
84 -303 -325 0
84 303 -326 0
-84 303 326 0
-84 -303 325 0
85 -303 -323 0
85 303 -324 0
-85 303 324 0
-85 -303 323 0
-86 -301 87 95 0
-86 301 87 93 0
86 -87 0
86 -301 -95 0
86 301 -93 0
87 301 -88 0
87 -301 -91 0
-87 -301 91 0
-87 301 88 0
88 302 -89 0
88 -302 -90 0
-88 -302 90 0
-88 302 89 0
89 -303 -326 0
89 303 -327 0
-89 303 327 0
-89 -303 326 0
90 -303 -324 0
90 303 -325 0
-90 303 325 0
-90 -303 324 0
91 -302 -72 0
91 302 -92 0
-91 302 92 0
-91 -302 72 0
92 -303 -322 0
92 303 -323 0
-92 303 323 0
-92 -303 322 0
93 -302 -84 0
93 302 -94 0
-93 302 94 0
-93 -302 84 0
94 -303 -327 0
94 303 -328 0
-94 303 328 0
-94 -303 327 0
95 -302 -75 0
95 302 -85 0
-95 302 85 0
-95 -302 75 0
96 -300 48 56 97 0
-96 -97 0
-96 -56 0
-96 300 0
-96 -48 0
97 -301 -23 0
97 301 -98 0
-97 301 98 0
-97 -301 23 0
98 -302 -50 0
98 302 -76 0
-98 302 76 0
-98 -302 50 0
99 -300 -100 0
99 300 -102 0
99 300 -101 0
-99 -300 100 0
-99 300 101 102 0
100 301 302 303 -304 0
-100 304 0
-100 -303 0
-100 -301 0
-100 -302 0
-101 52 60 0
101 -52 0
101 -60 0
102 301 -26 0
102 -301 -30 0
-102 -301 30 0
-102 301 26 0
-103 299 -300 102 0
-103 299 300 97 0
103 -299 0
103 -300 -102 0
103 300 -97 0
-104 299 9 0
-104 300 9 -100 0
104 -9 0
104 -299 100 0
104 -299 -300 0
-105 -8 0
-105 77 99 106 0
105 8 -77 0
105 8 -106 0
105 8 -99 0
106 300 -107 0
106 300 -42 0
106 300 -29 0
-106 -300 0
-106 29 42 107 0
107 301 -62 0
-107 -301 0
-107 62 0
-108 109 116 120 125 0
108 -125 0
108 -120 0
108 -109 0
108 -116 0
109 -299 9 -115 0
109 299 9 -110 0
-109 -9 0
-109 -299 115 0
-109 299 110 0
-110 -300 70 0
-110 300 111 0
110 -300 -70 0
110 300 -111 0
-111 301 113 0
-111 -301 112 0
111 -301 -112 0
111 301 -113 0
112 302 -90 0
112 -302 -92 0
-112 -302 92 0
-112 302 90 0
113 -302 -89 0
113 302 -114 0
-113 302 114 0
-113 -302 89 0
114 -303 -328 0
114 303 -329 0
-114 303 329 0
-114 -303 328 0
115 300 -68 0
115 -300 -79 0
-115 -300 79 0
-115 300 68 0
116 8 -115 0
116 8 -119 0
116 8 -117 0
-116 -8 0
-116 115 117 119 0
117 -300 -107 0
117 300 -118 0
-117 300 118 0
-117 -300 107 0
118 301 -59 0
118 -301 -61 0
-118 -301 61 0
-118 301 59 0
119 300 -69 0
119 -300 -78 0
-119 -300 78 0
-119 300 69 0
120 299 9 -121 0
120 -299 9 -119 0
-120 -9 0
-120 299 121 0
-120 -299 119 0
-121 -300 73 0
-121 300 122 0
121 -300 -73 0
121 300 -122 0
-122 301 123 0
-122 -301 83 0
122 -301 -83 0
122 301 -123 0
123 -302 -94 0
123 302 -124 0
-123 302 124 0
-123 -302 94 0
124 -303 -329 0
124 303 -330 0
-124 303 330 0
-124 -303 329 0
-125 126 132 0
125 -126 0
125 -132 0
126 299 9 -127 0
126 -299 9 -117 0
-126 -9 0
-126 299 127 0
-126 -299 117 0
-127 300 128 0
-127 -300 131 0
127 -300 -131 0
127 300 -128 0
-128 301 129 0
-128 -301 88 0
128 -301 -88 0
128 301 -129 0
129 -302 -114 0
129 302 -130 0
-129 302 130 0
-129 -302 114 0
130 -303 -330 0
130 303 -331 0
-130 303 331 0
-130 -303 330 0
131 -301 -57 0
131 301 -91 0
-131 301 91 0
-131 -301 57 0
132 299 9 -133 0
132 -299 9 -106 0
-132 -9 0
-132 -299 106 0
-132 299 133 0
133 -35 -134 0
133 -134 -137 0
133 300 -134 0
-133 134 0
-133 -300 35 137 0
-134 300 131 135 136 0
134 -136 0
134 -135 0
134 -300 0
134 -131 0
135 -301 -71 0
135 301 -112 0
-135 301 112 0
-135 -301 71 0
136 301 -95 0
136 -301 -98 0
-136 -301 98 0
-136 301 95 0
-137 22 118 0
137 -22 0
137 -118 0
138 299 9 -139 0
138 -299 9 -21 0
-138 -9 0
-138 299 139 0
-138 -299 21 0
-139 -300 136 0
-139 300 140 0
139 -300 -136 0
139 300 -140 0
-140 -301 93 0
-140 301 141 0
140 -301 -93 0
140 301 -141 0
-141 302 142 0
-141 -302 124 0
141 -302 -124 0
141 302 -142 0
142 -303 -331 0
142 303 -332 0
-142 303 332 0
-142 -303 331 0
143 299 9 -144 0
143 -299 9 -34 0
-143 -9 0
-143 299 144 0
-143 -299 34 0
-144 -300 135 0
-144 300 145 0
144 -300 -135 0
144 300 -145 0
-145 -301 113 0
-145 301 146 0
145 -301 -113 0
145 301 -146 0
-146 302 147 0
-146 -302 130 0
146 -302 -130 0
146 302 -147 0
147 -303 -332 0
147 303 -333 0
-147 303 333 0
-147 -303 332 0
148 149 -154 0
-148 -149 0
-148 154 0
149 299 9 -150 0
149 -299 9 -47 0
-149 -9 0
-149 299 150 0
-149 -299 47 0
-150 -300 82 0
-150 300 151 0
150 -300 -82 0
150 300 -151 0
-151 -301 123 0
-151 301 152 0
151 -301 -123 0
151 301 -152 0
-152 302 153 0
-152 -302 142 0
152 -302 -142 0
152 302 -153 0
153 -303 -333 0
153 303 -334 0
-153 303 334 0
-153 -303 333 0
154 -335 155 0
-154 335 0
-154 -155 0
155 299 9 -156 0
155 -299 9 -55 0
-155 -9 0
-155 299 156 0
-155 -299 55 0
-156 -300 87 0
-156 300 157 0
156 -300 -87 0
156 300 -157 0
-157 -301 129 0
-157 301 158 0
157 -301 -129 0
157 301 -158 0
-158 302 159 0
-158 -302 147 0
158 -302 -147 0
158 302 -159 0
159 -303 -334 0
159 303 -335 0
-159 303 335 0
-159 -303 334 0
-160 109 120 132 161 0
160 -161 0
160 -132 0
160 -109 0
160 -120 0
-161 7 64 105 116 0
161 -105 0
161 -116 0
161 -7 0
161 -64 0
-162 126 163 0
-162 -126 -185 0
-162 -126 178 0
162 126 -163 0
162 -126 -178 185 0
-163 138 164 0
-163 -138 171 0
163 -138 -171 0
163 138 -164 0
-164 143 165 0
-164 -143 168 0
164 -143 -168 0
164 143 -165 0
-165 -149 167 0
-165 149 154 166 0
165 149 -154 0
165 -149 -167 0
165 149 -166 0
166 -334 -155 0
-166 334 0
-166 155 0
-167 333 155 0
-167 332 -155 0
167 -333 155 0
167 -332 -155 0
168 -149 -170 0
168 149 -169 0
-168 149 169 0
-168 -149 170 0
-169 331 155 0
-169 330 -155 0
169 -331 155 0
169 -330 -155 0
-170 329 155 0
-170 328 -155 0
170 -329 155 0
170 -328 -155 0
171 143 -172 0
171 -143 -175 0
-171 -143 175 0
-171 143 172 0
172 -149 -174 0
172 149 -173 0
-172 149 173 0
-172 -149 174 0
-173 327 155 0
-173 326 -155 0
173 -327 155 0
173 -326 -155 0
-174 325 155 0
-174 324 -155 0
174 -325 155 0
174 -324 -155 0
175 -149 -177 0
175 149 -176 0
-175 149 176 0
-175 -149 177 0
-176 323 155 0
-176 322 -155 0
176 -323 155 0
176 -322 -155 0
-177 321 155 0
-177 320 -155 0
177 -321 155 0
177 -320 -155 0
-178 138 -143 182 0
-178 138 143 179 0
178 -138 0
178 -143 -182 0
178 143 -179 0
179 -149 -181 0
179 149 -180 0
-179 149 180 0
-179 -149 181 0
-180 319 155 0
-180 318 -155 0
180 -319 155 0
180 -318 -155 0
-181 317 155 0
-181 316 -155 0
181 -317 155 0
181 -316 -155 0
182 -149 -184 0
182 149 -183 0
-182 149 183 0
-182 -149 184 0
-183 315 155 0
-183 314 -155 0
183 -315 155 0
183 -314 -155 0
-184 313 155 0
-184 312 -155 0
184 -313 155 0
184 -312 -155 0
185 -138 -143 189 0
185 -138 143 186 0
-185 138 0
-185 -143 -189 0
-185 143 -186 0
186 -149 -188 0
186 149 -187 0
-186 149 187 0
-186 -149 188 0
-187 311 155 0
-187 310 -155 0
187 -311 155 0
187 -310 -155 0
-188 309 155 0
-188 308 -155 0
188 -309 155 0
188 -308 -155 0
189 -149 -191 0
189 149 -190 0
-189 149 190 0
-189 -149 191 0
-190 307 155 0
-190 306 -155 0
190 -307 155 0
190 -306 -155 0
-191 305 155 0
-191 304 -155 0
191 -305 155 0
191 -304 -155 0
192 6 138 143 -193 0
-192 193 0
-192 -143 0
-192 -6 0
-192 -138 0
193 149 -194 0
193 -149 -196 0
193 149 -195 0
-193 -149 196 0
-193 149 194 195 0
194 -333 -155 0
-194 333 0
-194 155 0
195 -332 155 0
-195 332 0
-195 -155 0
-196 334 155 0
-196 335 -155 0
196 -335 -155 0
196 -334 155 0
197 160 -198 0
-197 -160 0
-197 198 0
-198 -126 213 0
-198 126 199 206 0
198 126 -199 0
198 -126 -213 0
198 126 -206 0
199 138 -143 -203 0
199 138 143 -200 0
-199 -138 0
-199 -143 203 0
-199 143 200 0
-200 -149 201 0
-200 149 202 0
200 149 -202 0
200 -149 -201 0
-201 330 155 0
-201 329 -155 0
201 -330 155 0
201 -329 -155 0
-202 332 155 0
-202 331 -155 0
202 -332 155 0
202 -331 -155 0
203 -149 -205 0
203 149 -204 0
-203 149 204 0
-203 -149 205 0
-204 328 155 0
-204 327 -155 0
204 -328 155 0
204 -327 -155 0
-205 326 155 0
-205 325 -155 0
205 -326 155 0
205 -325 -155 0
206 -138 -143 -210 0
206 -138 143 -207 0
-206 138 0
-206 -143 210 0
-206 143 207 0
207 -149 -209 0
207 149 -208 0
-207 149 208 0
-207 -149 209 0
-208 324 155 0
-208 323 -155 0
208 -324 155 0
208 -323 -155 0
-209 322 155 0
-209 321 -155 0
209 -322 155 0
209 -321 -155 0
210 -149 -212 0
210 149 -211 0
-210 149 211 0
-210 -149 212 0
-211 320 155 0
-211 319 -155 0
211 -320 155 0
211 -319 -155 0
-212 318 155 0
-212 317 -155 0
212 -318 155 0
212 -317 -155 0
213 -138 -220 0
213 138 -214 217 0
-213 138 214 0
-213 -138 220 0
-213 138 -217 0
-214 143 -149 216 0
-214 143 149 215 0
214 -143 0
214 -149 -216 0
214 149 -215 0
-215 316 155 0
-215 315 -155 0
215 -316 155 0
215 -315 -155 0
-216 314 155 0
-216 313 -155 0
216 -314 155 0
216 -313 -155 0
217 -143 -149 219 0
217 -143 149 218 0
-217 143 0
-217 -149 -219 0
-217 149 -218 0
-218 312 155 0
-218 311 -155 0
218 -312 155 0
218 -311 -155 0
-219 310 155 0
-219 309 -155 0
219 -310 155 0
219 -309 -155 0
220 143 -221 0
220 -143 149 -224 0
-220 -143 -149 0
-220 143 221 0
-220 -143 224 0
221 -149 -223 0
221 149 -222 0
-221 149 222 0
-221 -149 223 0
-222 308 155 0
-222 307 -155 0
222 -308 155 0
222 -307 -155 0
-223 306 155 0
-223 305 -155 0
223 -306 155 0
223 -305 -155 0
224 -304 155 0
-224 304 0
-224 -155 0
-225 -226 -228 0
-225 226 228 0
225 226 -228 0
225 -226 228 0
226 6 138 143 -227 0
-226 227 0
-226 -143 0
-226 -6 0
-226 -138 0
227 149 -196 0
-227 -149 0
-227 196 0
228 160 -229 0
-228 -160 0
-228 229 0
-229 126 230 0
-229 -126 -240 0
-229 -126 237 0
229 126 -230 0
229 -126 -237 240 0
-230 138 231 0
-230 -138 -236 0
-230 -138 235 0
230 138 -231 0
230 -138 -235 236 0
-231 143 232 0
-231 -143 234 0
231 -143 -234 0
231 143 -232 0
-232 -149 202 0
-232 149 194 233 0
232 149 -194 0
232 -149 -202 0
232 149 -233 0
233 -334 155 0
-233 334 0
-233 -155 0
234 -149 -204 0
234 149 -201 0
-234 149 201 0
-234 -149 204 0
-235 143 -149 208 0
-235 143 149 205 0
235 -143 0
235 -149 -208 0
235 149 -205 0
236 -143 -149 211 0
236 -143 149 209 0
-236 143 0
-236 -149 -211 0
-236 149 -209 0
-237 138 -143 239 0
-237 138 143 238 0
237 -138 0
237 -143 -239 0
237 143 -238 0
238 -149 -215 0
238 149 -212 0
-238 149 212 0
-238 -149 215 0
239 -149 -218 0
239 149 -216 0
-239 149 216 0
-239 -149 218 0
240 -138 -143 242 0
240 -138 143 241 0
-240 138 0
-240 -143 -242 0
-240 143 -241 0
241 -149 -222 0
241 149 -219 0
-241 149 219 0
-241 -149 222 0
242 149 -223 0
242 -304 -149 155 0
-242 304 -149 0
-242 149 223 0
-242 -149 -155 0
-243 301 260 0
-243 -244 -247 260 0
-243 244 247 260 0
243 -260 0
243 -301 244 -247 0
243 -301 -244 247 0
244 6 138 143 -245 0
-244 245 0
-244 -143 0
-244 -6 0
-244 -138 0
245 -149 -154 0
245 149 -246 0
-245 -149 154 0
-245 149 246 0
-246 333 155 0
-246 334 -155 0
246 -334 -155 0
246 -333 155 0
247 160 -248 0
-247 -160 0
-247 248 0
-248 -126 255 0
-248 126 249 252 0
248 126 -249 0
248 -126 -255 0
248 126 -252 0
249 138 -143 -251 0
249 138 143 -250 0
-249 -138 0
-249 -143 251 0
-249 143 250 0
-250 149 167 0
-250 -149 169 0
250 -149 -169 0
250 149 -167 0
251 -149 -173 0
251 149 -170 0
-251 149 170 0
-251 -149 173 0
252 -138 -143 -254 0
252 -138 143 -253 0
-252 138 0
-252 -143 254 0
-252 143 253 0
253 -149 -176 0
253 149 -174 0
-253 149 174 0
-253 -149 176 0
254 -149 -180 0
254 149 -177 0
-254 149 177 0
-254 -149 180 0
255 -138 -258 0
255 138 -256 257 0
-255 138 256 0
-255 -138 258 0
-255 138 -257 0
-256 143 -149 183 0
-256 143 149 181 0
256 -143 0
256 -149 -183 0
256 149 -181 0
257 -143 -149 187 0
257 -143 149 184 0
-257 143 0
-257 -149 -187 0
-257 149 -184 0
258 143 -259 0
258 -143 149 -191 0
-258 -143 -149 0
-258 143 259 0
-258 -143 191 0
259 -149 -190 0
259 149 -188 0
-259 149 188 0
-259 -149 190 0
260 -299 261 -266 0
260 -299 -261 266 0
-260 299 0
-260 -261 -266 0
-260 261 266 0
261 6 138 -262 0
-261 -6 0
-261 -138 0
-261 262 0
262 -143 -148 0
262 143 -263 0
-262 143 263 0
-262 -143 148 0
263 149 -264 0
263 -149 -246 0
263 149 -265 0
-263 -149 246 0
-263 149 264 265 0
264 -332 -155 0
-264 332 0
-264 155 0
265 -331 155 0
-265 331 0
-265 -155 0
266 -126 160 -270 0
266 126 160 -267 0
-266 -160 0
-266 -126 270 0
-266 126 267 0
-267 138 268 0
-267 -138 269 0
267 -138 -269 0
267 138 -268 0
-268 -143 172 0
-268 143 168 0
268 143 -168 0
268 -143 -172 0
269 143 -175 0
269 -143 -179 0
-269 -143 179 0
-269 143 175 0
270 138 -271 0
270 -138 143 -189 0
-270 -138 -143 0
-270 138 271 0
-270 -138 189 0
271 143 -182 0
271 -143 -186 0
-271 -143 186 0
-271 143 182 0
-336 0
2 0

